Route #1: 32 31 73 33 95
Route #2: 50 19 79
Route #3: 63 42 6
Route #4: 21 100 27 38 47 26
Route #5: 75 30 85 11
Route #6: 80 17 34 44
Route #7: 18 1 5
Route #8: 93 53
Route #9: 59 67 43 45 65
Route #10: 40 57 72 60 3
Route #11: 22 41 20
Route #12: 4 13 74
Route #13: 77 28 82 88
Route #14: 23 61 56
Route #15: 51 91 97
Route #16: 8 94 96 64
Route #17: 71 62 99 98 89
Route #18: 39 25 10 14
Route #19: 66 84 90 68
Route #20: 48 87 37 78
Route #21: 81 83 52
Route #22: 54 9 92
Route #23: 58 12
Route #24: 29 36 49 2 7
Route #25: 76 55 16 69
Route #26: 15 70 86
Route #27: 24 46 35
Cost 29761
